language ESSENCE' 1.0

letting jobs = 102
letting horizon = 792
letting resourcesRenew = 2
letting resourcesNonrenew = 2
letting resourceLimits = [44, 44, 162, 151]
letting successors = [[2, 3, 4, 5, 6, 7, 8, 9, 10, 11, 12, 13, 14, 15, 16, 18, 19, 20, 21, 31], [58, 51, 50, 49, 46, 45, 44, 41, 39, 37, 36, 33, 28, 25, 24, 22], [51, 50, 46, 45, 40, 39, 38, 37, 36, 35, 29, 28, 23, 22], [57, 51, 49, 44, 42, 39, 38, 28, 26, 22, 17], [58, 48, 45, 44, 43, 39, 38, 36, 32, 28, 27, 26], [58, 57, 52, 49, 47, 46, 43, 42, 40, 39, 38, 36, 22], [58, 52, 49, 45, 43, 42, 39, 28, 27, 22], [69, 47, 43, 42, 37, 34, 26], [67, 53, 52, 47, 45, 44, 43, 40, 39, 32], [62, 56, 53, 50, 49, 47, 43, 40, 37, 36], [68, 56, 54, 53, 51, 49, 45, 40, 37, 35], [71, 67, 56, 52, 51, 50, 48, 46, 39, 30], [71, 69, 67, 58, 53, 49, 43, 33, 32], [71, 61, 56, 49, 37, 34, 30], [62, 57, 53, 49, 47, 45, 43, 40, 36], [71, 59, 49, 47, 45, 43, 42, 35], [69, 62, 59, 58, 56, 55, 52, 50, 47, 45, 43], [67, 62, 57, 56, 54, 49, 45, 43, 40], [86, 71, 68, 66, 62, 58, 56, 55, 53, 52, 51, 47, 46, 39], [86, 71, 68, 67, 59, 55, 53, 47, 45, 44, 39], [69, 59, 56, 52, 47, 46, 43, 34], [86, 82, 71, 69, 68, 67, 65, 63, 62, 61, 59, 56, 54, 53, 48], [82, 77, 71, 69, 68, 67, 63, 61, 59, 56, 54, 53, 52, 49], [71, 69, 67, 65, 63, 61, 59, 56, 53, 47, 38], [72, 69, 67, 66, 65, 61, 60, 59, 57, 47, 43], [82, 68, 67, 63, 62, 61, 56, 54, 52, 40], [86, 82, 77, 71, 69, 68, 67, 65, 64, 63, 61, 59, 56, 54, 53], [86, 69, 68, 66, 65, 63, 61, 56, 55, 53, 47], [83, 82, 77, 73, 72, 71, 70, 69, 68, 66, 65, 64, 63, 62, 61, 60, 58, 55], [86, 77, 68, 65, 63, 62, 59, 55, 53, 47], [77, 65, 57, 54, 53, 41], [83, 70, 59, 50, 42], [83, 82, 76, 72, 70, 66, 65, 62, 61, 60, 56, 55], [86, 82, 77, 67, 57, 54, 53], [101, 86, 82, 81, 77, 76, 72, 69, 65, 63, 62, 60, 55], [83, 78, 77, 75, 73, 72, 70, 68, 67, 64, 61, 60], [83, 82, 72, 70, 63, 59, 55, 52], [86, 82, 78, 77, 72, 68, 54], [101, 85, 82, 77, 76, 72, 64, 54], [94, 86, 83, 81, 77, 74, 72, 71, 65, 59, 55], [101, 85, 83, 82, 78, 76, 75, 72, 63, 56], [86, 82, 78, 76, 75, 72, 66, 64, 56], [95, 86, 85, 83, 82, 80, 79, 78, 77, 74, 68, 64, 63], [101, 85, 82, 78, 76, 75, 65, 64, 56], [80, 76, 72, 66, 64, 63, 61, 60], [101, 84, 80, 78, 76, 73, 64, 63, 60], [84, 82, 78, 64, 54], [84, 83, 80, 78, 77, 74, 73, 66, 64], [86, 85, 84, 80, 74, 73, 66, 64], [86, 85, 82, 80, 76, 75, 65, 63], [101, 81, 78, 76, 75, 74, 72, 63], [101, 80, 78, 74, 73, 65, 64], [100, 81, 80, 76, 72, 60], [95, 83, 80, 75, 74, 73, 70], [100, 99, 96, 93, 85, 84, 80, 79, 78, 75], [100, 99, 93, 90, 84, 80, 74, 73], [101, 100, 99, 96, 95, 94, 93, 92, 90, 85, 80, 79, 78], [100, 99, 94, 93, 85, 79, 75, 74], [100, 99, 98, 96, 92, 90, 84, 80, 79], [99, 98, 97, 93, 90, 85, 74], [99, 98, 96, 94, 93, 92, 90, 89, 87, 79], [99, 98, 96, 94, 91, 90, 89, 84, 79], [100, 99, 98, 96, 93, 92, 91, 90, 89, 88, 87], [100, 99, 98, 97, 94, 93, 91, 81], [100, 96, 93, 92, 90, 89, 87, 79], [101, 96, 92, 91, 90, 89, 87, 79], [99, 98, 93, 92, 91, 84, 80], [101, 98, 97, 92, 90, 76], [95, 93, 92, 90, 80, 79], [100, 93, 92, 91, 90, 89, 81], [100, 97, 96, 93, 92, 78], [96, 93, 91, 90, 87, 84], [98, 91, 81, 79], [96, 92, 91, 89, 88, 87], [98, 92, 90, 87], [99, 96, 94, 89], [100, 97, 90, 89], [91, 88, 87], [97, 88], [89, 87], [88, 87], [93, 91], [93, 90], [95], [91], [87], [102], [102], [102], [102], [102], [102], [102], [102], [102], [102], [102], [102], [102], [102], [102], []]
letting durations = [[0], [1, 9, 9], [1, 2, 6], [4, 6, 8], [2, 4, 6], [2, 7, 9], [6, 9, 10], [4, 5, 9], [5, 8, 9], [3, 5, 10], [2, 3, 6], [2, 5, 10], [1, 4, 9], [3, 7, 10], [4, 6, 10], [3, 6, 7], [1, 4, 5], [5, 8, 9], [4, 5, 6], [5, 6, 6], [4, 6, 6], [5, 7, 8], [1, 4, 8], [4, 7, 10], [4, 5, 6], [4, 5, 7], [6, 10, 10], [1, 5, 8], [2, 7, 8], [5, 6, 10], [1, 3, 3], [3, 6, 8], [4, 4, 7], [3, 3, 4], [1, 2, 6], [1, 5, 6], [4, 6, 10], [7, 8, 9], [2, 2, 8], [5, 7, 8], [5, 6, 9], [2, 3, 7], [5, 7, 8], [1, 2, 6], [1, 5, 9], [4, 5, 7], [3, 5, 9], [1, 4, 10], [3, 7, 7], [1, 1, 2], [1, 2, 9], [3, 4, 10], [4, 6, 7], [1, 3, 6], [4, 9, 10], [3, 9, 10], [1, 6, 8], [3, 4, 5], [1, 7, 9], [3, 9, 9], [1, 4, 6], [1, 7, 7], [5, 7, 9], [1, 4, 9], [5, 7, 9], [7, 9, 9], [2, 9, 10], [2, 3, 5], [1, 3, 8], [4, 4, 5], [6, 9, 10], [6, 8, 9], [5, 6, 10], [1, 6, 6], [1, 6, 10], [1, 5, 8], [3, 8, 9], [1, 2, 9], [1, 3, 9], [4, 5, 8], [3, 6, 7], [4, 4, 10], [6, 7, 8], [1, 6, 8], [4, 7, 9], [2, 7, 10], [1, 2, 7], [4, 7, 8], [2, 4, 6], [4, 7, 8], [4, 8, 10], [1, 5, 6], [2, 4, 7], [1, 3, 9], [4, 6, 10], [2, 5, 8], [1, 2, 9], [8, 9, 9], [1, 2, 7], [1, 1, 4], [1, 4, 6], [0]]
letting resourceUsage = [[[0, 0, 0, 0]], [[4, 0, 0, 10], [0, 1, 2, 0], [0, 1, 0, 8]], [[2, 0, 5, 0], [0, 4, 4, 0], [0, 4, 0, 1]], [[0, 5, 6, 0], [5, 0, 4, 0], [0, 3, 0, 5]], [[2, 0, 7, 0], [2, 0, 0, 4], [0, 1, 0, 3]], [[1, 0, 7, 0], [0, 2, 6, 0], [0, 2, 5, 0]], [[1, 0, 6, 0], [1, 0, 0, 2], [1, 0, 0, 1]], [[0, 1, 8, 0], [0, 1, 0, 5], [0, 1, 3, 0]], [[4, 0, 8, 0], [4, 0, 0, 3], [3, 0, 2, 0]], [[5, 0, 4, 0], [4, 0, 0, 3], [4, 0, 0, 2]], [[3, 0, 0, 9], [0, 5, 0, 9], [3, 0, 0, 8]], [[2, 0, 0, 6], [0, 4, 0, 5], [1, 0, 0, 5]], [[3, 0, 7, 0], [0, 3, 5, 0], [0, 1, 0, 1]], [[0, 5, 0, 9], [3, 0, 0, 7], [3, 0, 0, 4]], [[0, 3, 0, 4], [2, 0, 4, 0], [0, 2, 0, 3]], [[0, 5, 5, 0], [0, 5, 0, 3], [5, 0, 2, 0]], [[5, 0, 3, 0], [3, 0, 2, 0], [0, 3, 2, 0]], [[0, 5, 7, 0], [0, 4, 0, 2], [0, 4, 3, 0]], [[0, 3, 6, 0], [0, 3, 5, 0], [2, 0, 3, 0]], [[3, 0, 4, 0], [0, 3, 3, 0], [2, 0, 2, 0]], [[3, 0, 0, 10], [0, 3, 0, 9], [0, 3, 1, 0]], [[0, 3, 8, 0], [0, 3, 5, 0], [4, 0, 4, 0]], [[0, 1, 0, 8], [2, 0, 4, 0], [2, 0, 0, 5]], [[4, 0, 0, 7], [0, 1, 0, 6], [2, 0, 0, 3]], [[4, 0, 0, 4], [3, 0, 3, 0], [0, 1, 0, 3]], [[5, 0, 1, 0], [0, 3, 1, 0], [3, 0, 0, 5]], [[0, 4, 5, 0], [0, 3, 0, 5], [2, 0, 5, 0]], [[0, 1, 6, 0], [0, 1, 3, 0], [2, 0, 0, 2]], [[0, 4, 9, 0], [3, 0, 0, 3], [0, 4, 7, 0]], [[4, 0, 2, 0], [0, 3, 0, 9], [4, 0, 1, 0]], [[0, 5, 8, 0], [3, 0, 4, 0], [0, 4, 1, 0]], [[3, 0, 0, 7], [3, 0, 3, 0], [0, 2, 0, 2]], [[0, 5, 0, 6], [0, 4, 6, 0], [0, 4, 0, 3]], [[1, 0, 0, 2], [1, 0, 6, 0], [1, 0, 4, 0]], [[5, 0, 0, 5], [0, 5, 7, 0], [3, 0, 0, 1]], [[0, 3, 0, 6], [0, 2, 4, 0], [3, 0, 0, 5]], [[0, 4, 7, 0], [0, 3, 0, 3], [2, 0, 4, 0]], [[0, 4, 7, 0], [2, 0, 0, 1], [0, 2, 1, 0]], [[3, 0, 9, 0], [0, 2, 0, 5], [0, 2, 5, 0]], [[4, 0, 0, 8], [3, 0, 3, 0], [0, 3, 2, 0]], [[3, 0, 0, 9], [0, 3, 2, 0], [0, 2, 2, 0]], [[0, 5, 2, 0], [4, 0, 2, 0], [4, 0, 1, 0]], [[0, 1, 2, 0], [0, 1, 0, 2], [0, 1, 0, 1]], [[4, 0, 0, 5], [3, 0, 4, 0], [3, 0, 0, 3]], [[0, 3, 5, 0], [0, 2, 3, 0], [0, 2, 2, 0]], [[5, 0, 8, 0], [3, 0, 7, 0], [1, 0, 2, 0]], [[0, 5, 0, 7], [0, 3, 0, 6], [0, 3, 0, 3]], [[0, 4, 0, 6], [2, 0, 0, 6], [2, 0, 4, 0]], [[2, 0, 6, 0], [0, 2, 0, 6], [2, 0, 0, 1]], [[3, 0, 0, 7], [0, 4, 0, 5], [0, 4, 0, 2]], [[4, 0, 0, 2], [4, 0, 0, 1], [0, 2, 2, 0]], [[3, 0, 0, 3], [0, 3, 9, 0], [0, 3, 8, 0]], [[3, 0, 10, 0], [2, 0, 0, 2], [2, 0, 0, 1]], [[4, 0, 8, 0], [0, 3, 0, 3], [3, 0, 0, 2]], [[0, 3, 5, 0], [3, 0, 4, 0], [3, 0, 3, 0]], [[5, 0, 6, 0], [0, 3, 5, 0], [4, 0, 4, 0]], [[0, 3, 0, 9], [0, 2, 6, 0], [0, 1, 0, 6]], [[0, 3, 0, 5], [0, 2, 0, 4], [3, 0, 0, 2]], [[2, 0, 7, 0], [2, 0, 6, 0], [2, 0, 5, 0]], [[4, 0, 0, 9], [4, 0, 3, 0], [0, 2, 0, 6]], [[1, 0, 8, 0], [1, 0, 7, 0], [1, 0, 5, 0]], [[4, 0, 3, 0], [0, 4, 2, 0], [4, 0, 1, 0]], [[0, 2, 0, 10], [0, 2, 0, 6], [0, 1, 0, 4]], [[0, 3, 0, 3], [3, 0, 6, 0], [0, 3, 0, 1]], [[5, 0, 0, 8], [2, 0, 6, 0], [2, 0, 0, 4]], [[1, 0, 9, 0], [1, 0, 0, 5], [0, 2, 6, 0]], [[1, 0, 5, 0], [0, 2, 5, 0], [1, 0, 4, 0]], [[0, 3, 6, 0], [0, 2, 0, 5], [0, 1, 1, 0]], [[0, 5, 0, 10], [4, 0, 0, 7], [4, 0, 3, 0]], [[2, 0, 0, 5], [0, 3, 6, 0], [1, 0, 4, 0]], [[5, 0, 0, 6], [4, 0, 5, 0], [0, 3, 0, 2]], [[4, 0, 8, 0], [2, 0, 0, 6], [2, 0, 0, 1]], [[0, 2, 0, 10], [0, 2, 0, 7], [0, 2, 0, 4]], [[0, 4, 0, 8], [4, 0, 7, 0], [3, 0, 0, 5]], [[0, 5, 7, 0], [3, 0, 0, 2], [0, 2, 0, 2]], [[0, 1, 8, 0], [0, 1, 0, 5], [0, 1, 0, 4]], [[0, 3, 0, 10], [0, 3, 1, 0], [3, 0, 1, 0]], [[3, 0, 0, 7], [0, 4, 3, 0], [1, 0, 3, 0]], [[0, 4, 5, 0], [0, 3, 5, 0], [3, 0, 0, 5]], [[5, 0, 1, 0], [3, 0, 0, 3], [3, 0, 0, 2]], [[1, 0, 7, 0], [1, 0, 5, 0], [1, 0, 3, 0]], [[0, 3, 8, 0], [1, 0, 5, 0], [0, 1, 5, 0]], [[1, 0, 7, 0], [1, 0, 0, 1], [0, 2, 0, 1]], [[3, 0, 0, 8], [3, 0, 0, 5], [0, 3, 0, 4]], [[3, 0, 10, 0], [0, 2, 0, 4], [1, 0, 8, 0]], [[4, 0, 0, 8], [3, 0, 0, 5], [3, 0, 0, 4]], [[3, 0, 6, 0], [0, 4, 5, 0], [0, 4, 0, 8]], [[5, 0, 7, 0], [4, 0, 4, 0], [0, 1, 2, 0]], [[4, 0, 0, 8], [2, 0, 0, 4], [2, 0, 8, 0]], [[0, 3, 0, 7], [0, 3, 4, 0], [0, 2, 4, 0]], [[0, 3, 0, 7], [2, 0, 0, 6], [0, 2, 0, 6]], [[0, 5, 8, 0], [3, 0, 0, 6], [3, 0, 0, 1]], [[3, 0, 0, 10], [0, 1, 0, 7], [0, 1, 0, 4]], [[5, 0, 0, 8], [3, 0, 7, 0], [0, 3, 0, 5]], [[5, 0, 7, 0], [0, 3, 0, 2], [0, 2, 0, 2]], [[0, 4, 8, 0], [0, 4, 0, 5], [0, 4, 0, 4]], [[0, 3, 0, 10], [1, 0, 2, 0], [1, 0, 1, 0]], [[0, 5, 0, 7], [0, 4, 3, 0], [1, 0, 3, 0]], [[2, 0, 5, 0], [0, 2, 5, 0], [1, 0, 0, 5]], [[0, 1, 1, 0], [0, 1, 0, 3], [0, 1, 0, 2]], [[4, 0, 7, 0], [0, 2, 5, 0], [0, 2, 3, 0]], [[0, 0, 0, 0]]]
